(set-info :source |printed by MathSAT|)
(declare-fun |!{$(in_main#0)<N>}| () Int)
(declare-fun |!{$(in_main#0)<N>}.next| () Int)
(declare-fun |!{$(in_main#0)<i>}| () Int)
(declare-fun |!{$(in_main#0)<i>}.next| () Int)
(declare-fun |!{$(in_main#0)<x>}| () Int)
(declare-fun |!{$(in_main#0)<x>}.next| () Int)
(declare-fun |!{$(in_main#0)<a.1>}| () (Array Int Int))
(declare-fun |!{$(in_main#0)<a.1>}.next| () (Array Int Int))
(declare-fun |!{$(in_main#0)<b.2>}| () (Array Int Int))
(declare-fun |!{$(in_main#0)<b.2>}.next| () (Array Int Int))
(declare-fun |!{$(in_main#0)<$(in___VERIFIER_nondet_int#0)<h#<__VERIFIER_nondet_int.return>>>}| () Int)
(declare-fun !pc () Int)
(declare-fun !pc.next () Int)
(declare-fun |%{$(in_main#0)<x>}#1| () Int)
(declare-fun |%{$(in_main#0)<a.1>}#1| () (Array Int Int))
(declare-fun |%{$(in_main#0)<b.2>}#1| () (Array Int Int))
(define-fun .def_28 () Int (! !pc :next !pc.next))
(define-fun .def_31 () Bool (! (= .def_28 2) :init true))
(define-fun .def_148 () Bool (= .def_28 24))
(define-fun .def_131 () Bool (= !pc.next 37))
(define-fun .def_151 () Bool (and .def_131 .def_148))
(define-fun .def_8 () Int (! |!{$(in_main#0)<N>}| :next |!{$(in_main#0)<N>}.next|))
(define-fun .def_67 () Bool (= .def_8 |!{$(in_main#0)<N>}.next|))
(define-fun .def_44 () Bool (= |!{$(in_main#0)<i>}.next| 0))
(define-fun .def_143 () Bool (and .def_44 .def_67))
(define-fun .def_12 () Int (! |!{$(in_main#0)<x>}| :next |!{$(in_main#0)<x>}.next|))
(define-fun .def_71 () Bool (= .def_12 |!{$(in_main#0)<x>}.next|))
(define-fun .def_144 () Bool (and .def_71 .def_143))
(define-fun .def_14 () (Array Int Int) (! |!{$(in_main#0)<a.1>}| :next |!{$(in_main#0)<a.1>}.next|))
(define-fun .def_73 () Bool (= .def_14 |!{$(in_main#0)<a.1>}.next|))
(define-fun .def_145 () Bool (and .def_73 .def_144))
(define-fun .def_16 () (Array Int Int) (! |!{$(in_main#0)<b.2>}| :next |!{$(in_main#0)<b.2>}.next|))
(define-fun .def_75 () Bool (= .def_16 |!{$(in_main#0)<b.2>}.next|))
(define-fun .def_146 () Bool (and .def_75 .def_145))
(define-fun .def_10 () Int (! |!{$(in_main#0)<i>}| :next |!{$(in_main#0)<i>}.next|))
(define-fun .def_110 () Bool (<= .def_8 .def_10))
(define-fun .def_147 () Bool (and .def_110 .def_146))
(define-fun .def_152 () Bool (and .def_147 .def_151))
(define-fun .def_53 () Bool (= !pc.next 24))
(define-fun .def_149 () Bool (and .def_53 .def_148))
(define-fun .def_138 () (Array Int Int) (store .def_14 .def_10 42))
(define-fun .def_139 () Bool (= |!{$(in_main#0)<a.1>}.next| .def_138))
(define-fun .def_115 () Int (* (- 1) |!{$(in_main#0)<i>}.next|))
(define-fun .def_116 () Int (+ .def_10 .def_115))
(define-fun .def_117 () Bool (= .def_116 (- 1)))
(define-fun .def_118 () Bool (and .def_67 .def_117))
(define-fun .def_119 () Bool (and .def_71 .def_118))
(define-fun .def_140 () Bool (and .def_119 .def_139))
(define-fun .def_141 () Bool (and .def_75 .def_140))
(define-fun .def_111 () Bool (not .def_110))
(define-fun .def_142 () Bool (and .def_111 .def_141))
(define-fun .def_150 () Bool (and .def_142 .def_149))
(define-fun .def_153 () Bool (or .def_150 .def_152))
(define-fun .def_130 () Bool (= .def_28 37))
(define-fun .def_99 () Bool (= !pc.next 51))
(define-fun .def_134 () Bool (and .def_99 .def_130))
(define-fun .def_124 () Bool (= |!{$(in_main#0)<x>}.next| 0))
(define-fun .def_69 () Bool (= .def_10 |!{$(in_main#0)<i>}.next|))
(define-fun .def_78 () Bool (and .def_67 .def_69))
(define-fun .def_125 () Bool (and .def_78 .def_124))
(define-fun .def_126 () Bool (and .def_73 .def_125))
(define-fun .def_127 () Bool (and .def_75 .def_126))
(define-fun .def_128 () Bool (and .def_110 .def_127))
(define-fun .def_135 () Bool (and .def_128 .def_134))
(define-fun .def_132 () Bool (and .def_130 .def_131))
(define-fun .def_112 () Int (select .def_14 .def_10))
(define-fun .def_113 () (Array Int Int) (store .def_16 .def_10 .def_112))
(define-fun .def_121 () Bool (= |!{$(in_main#0)<b.2>}.next| .def_113))
(define-fun .def_120 () Bool (and .def_73 .def_119))
(define-fun .def_122 () Bool (and .def_120 .def_121))
(define-fun .def_123 () Bool (and .def_111 .def_122))
(define-fun .def_133 () Bool (and .def_123 .def_132))
(define-fun .def_136 () Bool (or .def_133 .def_135))
(define-fun .def_103 () Bool (= !pc.next 0))
(define-fun .def_94 () Bool (= .def_28 51))
(define-fun .def_104 () Bool (and .def_94 .def_103))
(define-fun .def_56 () Bool (<= .def_8 .def_12))
(define-fun .def_88 () Bool (and .def_56 .def_67))
(define-fun .def_89 () Bool (and .def_69 .def_88))
(define-fun .def_90 () Bool (and .def_71 .def_89))
(define-fun .def_91 () Bool (and .def_73 .def_90))
(define-fun .def_92 () Bool (and .def_75 .def_91))
(define-fun .def_105 () Bool (and .def_92 .def_104))
(define-fun .def_100 () Bool (and .def_94 .def_99))
(define-fun .def_80 () Int (* (- 1) |!{$(in_main#0)<x>}.next|))
(define-fun .def_81 () Int (+ .def_12 .def_80))
(define-fun .def_82 () Bool (= .def_81 (- 1)))
(define-fun .def_83 () Bool (and .def_78 .def_82))
(define-fun .def_84 () Bool (and .def_73 .def_83))
(define-fun .def_85 () Bool (and .def_75 .def_84))
(define-fun .def_58 () Int (select .def_16 .def_12))
(define-fun .def_60 () Bool (= .def_58 42))
(define-fun .def_61 () Int (ite .def_60 1 0))
(define-fun .def_62 () Bool (= .def_61 0))
(define-fun .def_63 () Bool (not .def_62))
(define-fun .def_86 () Bool (and .def_63 .def_85))
(define-fun .def_57 () Bool (not .def_56))
(define-fun .def_87 () Bool (and .def_57 .def_86))
(define-fun .def_101 () Bool (and .def_87 .def_100))
(define-fun .def_96 () Bool (= !pc.next 71))
(define-fun .def_97 () Bool (and .def_94 .def_96))
(define-fun .def_68 () Bool (and .def_62 .def_67))
(define-fun .def_70 () Bool (and .def_68 .def_69))
(define-fun .def_72 () Bool (and .def_70 .def_71))
(define-fun .def_74 () Bool (and .def_72 .def_73))
(define-fun .def_76 () Bool (and .def_74 .def_75))
(define-fun .def_77 () Bool (and .def_57 .def_76))
(define-fun .def_98 () Bool (and .def_77 .def_97))
(define-fun .def_102 () Bool (or .def_98 .def_101))
(define-fun .def_106 () Bool (or .def_102 .def_105))
(define-fun .def_54 () Bool (and .def_31 .def_53))
(define-fun .def_50 () Bool (= |!{$(in_main#0)<b.2>}.next| |%{$(in_main#0)<b.2>}#1|))
(define-fun .def_48 () Bool (= |!{$(in_main#0)<a.1>}.next| |%{$(in_main#0)<a.1>}#1|))
(define-fun .def_46 () Bool (= |!{$(in_main#0)<x>}.next| |%{$(in_main#0)<x>}#1|))
(define-fun .def_43 () Bool (= |!{$(in_main#0)<N>}.next| |!{$(in_main#0)<$(in___VERIFIER_nondet_int#0)<h#<__VERIFIER_nondet_int.return>>>}|))
(define-fun .def_45 () Bool (and .def_43 .def_44))
(define-fun .def_47 () Bool (and .def_45 .def_46))
(define-fun .def_49 () Bool (and .def_47 .def_48))
(define-fun .def_51 () Bool (and .def_49 .def_50))
(define-fun .def_55 () Bool (and .def_51 .def_54))
(define-fun .def_107 () Bool (or .def_55 .def_106))
(define-fun .def_137 () Bool (or .def_107 .def_136))
(define-fun .def_154 () Bool (! (or .def_137 .def_153) :trans true))
(define-fun .def_108 () Bool (= .def_28 71))
(define-fun .def_155 () Bool (! (not .def_108) :invar-property 0 :invar-property-name ||))
(assert true)
